%chk=test003b
#p test uhf output=mat

Test calculation for the NIO program on H2...H2 dimer.

1  2
H      0.0   0.0   0.0
H      0.0   0.0   0.7
H      2.0   0.0   0.0
H      2.0   0.0   0.7

test003b.mat

