%chk=test001b
#p test output=matrix

Test calculation for the NIO program on formaldehyde radical cation.

1  2
  C       -0.000000   -0.000000    0.028622
  O        0.000000    0.000000    1.245352
  H        0.926427   -0.000000   -0.566987
  H       -0.926427    0.000000   -0.566987

test001b.mat

