%chk=test102a
#p test uhf opt output=mat

H2 ground state calc.

0 1
 H                  0.0 0.0 0.0
 H                  0.0 0.0 0.7

test102a.mat

