%chk=test005a
#p test uhf aug-cc-pvqz geom=nocrowd output=mat

Test calculation for the NIO program on H2...H2 dimer.

0  1
H      0.0   0.0   0.0
H      0.0   0.0   0.4
H      0.7   0.0   0.0
H      0.7   0.0   0.4

test005a.mat

