%chk=test101a
#p test uhf geom=connect opt output=mat

Formaldehyde ground state calc.

0 1
 C                 -0.45101900    0.45078724    0.01180373
 H                  0.08214475   -0.47691768    0.01180373
 H                 -1.52101900    0.45078724    0.01180373
 O                  0.17602143    1.54183758    0.01180373

 1 2 1.0 3 1.0 4 2.0
 2
 3
 4

test101a.mat

